c generated by sgen3tocnf
c nLits = 639
c actual nVars = 213
c Command: sgen3tocnf 72 15 0 0 216 3 1 0 /dev/null
p cnf 216 285
-10 -37 0
-10 -124 0
-37 -124 0
-175 -67 0
-175 -154 0
-67 -154 0
-49 -40 0
-49 -31 0
-40 -31 0
-166 -55 0
-166 -136 0
-55 -136 0
-34 -97 0
-34 -50 0
-97 -50 0
-13 -184 0
-13 -16 0
-184 -16 0
-202 -85 0
-202 -14 0
-85 -14 0
-155 -91 0
-155 -127 0
-91 -127 0
-106 -156 0
-106 -112 0
-156 -112 0
-137 -17 0
-137 -73 0
-17 -73 0
-145 -118 0
-145 -130 0
-118 -130 0
-139 -43 0
-139 -70 0
-43 -70 0
-18 -94 0
-18 -148 0
-94 -148 0
-205 -176 0
-205 -64 0
-176 -64 0
-115 -35 0
-115 -172 0
-35 -172 0
-173 -206 0
-173 -107 0
-206 -107 0
-98 -52 0
-98 -58 0
-52 -58 0
-178 -146 0
-178 -95 0
-146 -95 0
-38 -25 0
-38 -53 0
-25 -53 0
-59 -128 0
-59 -181 0
-128 -181 0
-142 -82 0
-142 -185 0
-82 -185 0
-214 -109 0
-214 -187 0
-109 -187 0
-186 -160 0
-186 -46 0
-160 -46 0
-88 -74 0
-88 -1 0
-74 -1 0
-208 -169 0
-208 -119 0
-169 -119 0
-56 -100 0
-56 -203 0
-100 -203 0
-75 -121 0
-75 -177 0
-121 -177 0
-83 -76 0
-83 -116 0
-76 -116 0
-151 -190 0
-151 -19 0
-190 -19 0
-4 -133 0
-4 -79 0
-133 -79 0
-113 -125 0
-113 -57 0
-125 -57 0
-92 -108 0
-92 -26 0
-108 -26 0
-101 -182 0
-101 -191 0
-182 -191 0
-211 -5 0
-211 -164 0
-5 -164 0
-96 -65 0
-96 -196 0
-65 -196 0
-32 -204 0
-32 -122 0
-204 -122 0
-66 -11 0
-66 -6 0
-11 -6 0
-68 -215 0
-68 -93 0
-215 -93 0
-123 -80 0
-123 -170 0
-80 -170 0
-54 -117 0
-54 -134 0
-117 -134 0
-41 -47 0
-41 -77 0
-47 -77 0
-171 -15 0
-171 -140 0
-15 -140 0
-81 -152 0
-81 -7 0
-152 -7 0
-135 -114 0
-135 -86 0
-114 -86 0
-193 -141 0
-193 -216 0
-141 -216 0
-197 -20 0
-197 -147 0
-20 -147 0
-149 -167 0
-149 -102 0
-167 -102 0
-131 -143 0
-131 -212 0
-143 -212 0
-28 -33 0
-28 -207 0
-33 -207 0
-126 -198 0
-126 -179 0
-198 -179 0
-71 -138 0
-71 -29 0
-138 -29 0
-78 -158 0
-78 -61 0
-158 -61 0
-161 -194 0
-161 -89 0
-194 -89 0
-103 -150 0
-103 -153 0
-150 -153 0
-2 -188 0
-2 -99 0
-188 -99 0
-110 -213 0
-110 -39 0
-213 -39 0
-8 -51 0
-8 -84 0
-51 -84 0
-183 -90 0
-183 -22 0
-90 -22 0
-21 -30 0
-21 -209 0
-30 -209 0
-48 -180 0
-48 -199 0
-180 -199 0
-189 -174 0
-189 -45 0
-174 -45 0
-62 -72 0
-62 -162 0
-72 -162 0
-120 -9 0
-120 -104 0
-9 -104 0
-192 -60 0
-192 -36 0
-60 -36 0
-129 -3 0
-129 -111 0
-3 -111 0
-27 -23 0
-27 -195 0
-23 -195 0
-24 -105 0
-24 -144 0
-105 -144 0
-200 -210 0
-200 -69 0
-210 -69 0
-87 -201 0
-87 -12 0
-201 -12 0
-159 -132 0
-159 -168 0
-132 -168 0
-165 -63 0
-165 -42 0
-63 -42 0
2 3 1 0
4 5 6 0
8 9 7 0
10 11 12 0
13 15 14 0
18 17 16 0
21 20 19 0
24 23 22 0
27 25 26 0
28 30 29 0
32 33 31 0
34 35 36 0
38 37 39 0
41 40 42 0
43 45 0
48 47 46 0
49 51 50 0
54 52 53 0
56 55 57 0
59 60 58 0
62 63 61 0
66 65 64 0
68 67 69 0
71 72 70 0
75 74 73 0
78 76 77 0
81 80 79 0
83 82 84 0
87 85 86 0
88 90 89 0
92 91 93 0
96 94 95 0
98 97 99 0
101 100 102 0
103 105 104 0
106 108 107 0
110 109 111 0
113 114 112 0
115 117 116 0
120 118 119 0
123 121 122 0
126 125 124 0
129 128 127 0
131 132 130 0
135 133 134 0
137 138 136 0
139 141 140 0
142 143 144 0
145 146 147 0
149 150 148 0
151 152 153 0
155 156 154 0
159 158 0
161 160 162 0
165 164 0
166 167 168 0
171 169 170 0
173 174 172 0
175 176 177 0
178 180 179 0
183 182 181 0
186 184 185 0
189 188 187 0
192 190 191 0
193 194 195 0
197 198 196 0
200 201 199 0
202 204 203 0
205 206 207 0
208 210 209 0
211 213 212 0
214 215 216 0
